Data path: /scratch/opt/lxu/CFLG/benchmarks/random_A
Instance: r_20_0.1_23.txt
Result path: /scratch/opt/lxu/CFLG/results/random_A
Solver: Gurobi
Time limit: 3600
Formulation: LEFPV2
Cover: Small
julia --project=. src/main.jl /scratch/opt/lxu/CFLG/benchmarks/random_A r_20_0.1_23.txt /scratch/opt/lxu/CFLG/results/random_A Gurobi 3600 LEFPV2 Small
The latest version of Julia in the `release` channel is 1.11.5+0.x64.linux.gnu. You currently have `1.11.4+0.x64.linux.gnu` installed. Run:

  juliaup update

in your terminal shell to install Julia 1.11.5+0.x64.linux.gnu and update the `release` channel to that version.
/scratch/opt/lxu/CFLG/benchmarks/random_A Gurobi 3600.0 /scratch/opt/lxu/CFLG/results/random_A r_20_0.1_23.txt LEFPV2 Small
/scratch/opt/lxu/CFLG/benchmarks/random_A/r_20_0.1_23.txt

 read graph
data loaded


after absorb:15 20

max_piece:12
problem_graph/original graph: node: 16/20 edge: 19/23 dlt: 0.15034436315001956 break_avg_len: 0.7279832320948317 break_max_len: 1.7763450786767956elapsed CPU time: 0.045214 seconds
Set parameter TokenServer to value "solice01.zib.de"
Set parameter Threads to value 1
Set parameter OutputFlag to value 1
Set parameter MIPGap to value 0.0001
Set parameter MIPGapAbs to value 1
Set parameter TimeLimit to value 3599.954786

 more cuts:true
formulation:LEFPV217 2 1
Set parameter PreCrush to value 1

 model loaded

Gurobi Optimizer version 12.0.1 build v12.0.1rc0 (linux64 - "Debian GNU/Linux 12 (bookworm)")

CPU model: Intel(R) Xeon(R) Gold 5122 CPU @ 3.60GHz, instruction set [SSE2|AVX|AVX2|AVX512]
Thread count: 8 physical cores, 16 logical processors, using up to 1 threads

Non-default parameters:
TimeLimit  3599.954786
MIPGapAbs  1
PreCrush  1
Threads  1

Optimize a model with 375 rows, 192 columns and 714 nonzeros
Model fingerprint: 0x8c091ad6
Variable types: 73 continuous, 119 integer (85 binary)
Coefficient statistics:
  Matrix range     [1e-01, 2e+00]
  Objective range  [1e+00, 1e+00]
  Bounds range     [1e-01, 2e+00]
  RHS range        [1e-02, 5e+00]
Presolve removed 237 rows and 56 columns
Presolve time: 0.00s
Presolved: 138 rows, 136 columns, 392 nonzeros
Variable types: 64 continuous, 72 integer (61 binary)
Found heuristic solution: objective 48.0000000
Found heuristic solution: objective 47.0000000

Root relaxation: objective 3.770904e+01, 128 iterations, 0.00 seconds (0.00 work units)

    Nodes    |    Current Node    |     Objective Bounds      |     Work
 Expl Unexpl |  Obj  Depth IntInf | Incumbent    BestBd   Gap | It/Node Time

     0     0   37.70904    0   40   47.00000   37.70904  19.8%     -    0s
H    0     0                      46.0000000   37.70904  18.0%     -    0s
     0     0   39.96223    0   38   46.00000   39.96223  13.1%     -    0s
H    0     0                      45.0000000   40.04300  11.0%     -    0s
     0     0   40.10082    0   37   45.00000   40.10082  10.9%     -    0s
     0     0   40.18291    0   36   45.00000   40.18291  10.7%     -    0s
     0     0   40.92130    0   38   45.00000   40.92130  9.06%     -    0s
H    0     0                      44.0000000   40.95423  6.92%     -    0s
     0     0   40.98358    0   42   44.00000   40.98358  6.86%     -    0s
     0     0   40.98773    0   42   44.00000   40.98773  6.85%     -    0s
     0     0   40.98898    0   42   44.00000   40.98898  6.84%     -    0s
     0     0   41.08767    0   46   44.00000   41.08767  6.62%     -    0s
     0     0   41.09859    0   49   44.00000   41.09859  6.59%     -    0s
     0     0   41.10147    0   47   44.00000   41.10147  6.59%     -    0s
     0     0   42.00000    0   36   44.00000   42.00000  4.55%     -    0s
     0     0   42.00000    0   23   44.00000   42.00000  4.55%     -    0s
     0     0   42.00000    0   31   44.00000   42.00000  4.55%     -    0s
     0     0   42.00000    0   40   44.00000   42.00000  4.55%     -    0s
     0     0   42.00000    0   18   44.00000   42.00000  4.55%     -    0s
     0     0   42.00000    0   38   44.00000   42.00000  4.55%     -    0s
     0     0   42.00000    0   19   44.00000   42.00000  4.55%     -    0s
     0     0   42.00000    0   36   44.00000   42.00000  4.55%     -    0s
     0     0   42.00000    0   24   44.00000   42.00000  4.55%     -    0s
     0     0   42.00000    0   17   44.00000   42.00000  4.55%     -    0s
     0     2   42.00000    0   15   44.00000   42.00000  4.55%     -    0s

Cutting planes:
  Gomory: 18
  Cover: 9
  Implied bound: 4
  MIR: 66
  StrongCG: 4
  Flow cover: 26
  Inf proof: 1
  RLT: 7
  Relax-and-lift: 2
  BQP: 4
  PSD: 1

Explored 301 nodes (5159 simplex iterations) in 0.23 seconds (0.11 work units)
Thread count was 1 (of 16 available processors)

Solution count 5: 44 45 46 ... 48

Optimal solution found (tolerance 1.00e-04)
Best objective 4.400000000000e+01, best bound 4.300000000000e+01, gap 2.2727%

User-callback calls 1355, time in user-callback 0.86 sec

 sepatime0
Stat(MathOptInterface.OPTIMAL, 44.0, 43.00000000000001, 0.022727272727272565, 0.0, 0.045214, 0.23163104057312012, 301, Main.CFLG.LEFPV2, "", #undef)
